RST03
Position Depot: Random
Horizon for Depot: Small
Position of customers: Random
Distribution of the demand: Medium
Width of time windows: Tight
Distribution of the service: Large

VEHICLE 
NUMBER 	 CAPACITY 
 5 	 	 345 
 
CUSTOMER
CUST NO. 	 XCOORD.  	 YCOORD. 	 DEMAND 	 READY TIME 	 DUE DATE 	 SERVICE TIME 
 0 	 	 374 	 	 234 	 	 0 	 	 0 	 	 1590 	 	 0 
  1 	 	 26 	 	 97 	 	 4 	 	 1195 	 	 1285 	 	 157 
  2 	 	 361 	 	 306 	 	 83 	 	 823 	 	 965 	 	 154 
  3 	 	 8 	 	 627 	 	 10 	 	 512 	 	 590 	 	 176 
  4 	 	 691 	 	 384 	 	 1 	 	 323 	 	 385 	 	 176 
  5 	 	 514 	 	 696 	 	 9 	 	 621 	 	 716 	 	 200 
  6 	 	 482 	 	 762 	 	 6 	 	 511 	 	 592 	 	 199 
  7 	 	 723 	 	 916 	 	 9 	 	 700 	 	 842 	 	 123 
  8 	 	 73 	 	 477 	 	 9 	 	 620 	 	 798 	 	 174 
  9 	 	 330 	 	 310 	 	 5 	 	 890 	 	 972 	 	 198 
  10 	 	 645 	 	 831 	 	 9 	 	 591 	 	 721 	 	 140 
  11 	 	 321 	 	 552 	 	 2 	 	 972 	 	 1082 	 	 107 
  12 	 	 86 	 	 55 	 	 74 	 	 565 	 	 625 	 	 190 
  13 	 	 293 	 	 496 	 	 6 	 	 885 	 	 1064 	 	 160 
  14 	 	 506 	 	 557 	 	 4 	 	 1250 	 	 1318 	 	 186 
  15 	 	 528 	 	 977 	 	 5 	 	 1506 	 	 1590 	 	 151 
  16 	 	 260 	 	 69 	 	 7 	 	 1429 	 	 1590 	 	 132 
  17 	 	 286 	 	 902 	 	 67 	 	 1136 	 	 1237 	 	 146 
  18 	 	 753 	 	 323 	 	 3 	 	 1292 	 	 1466 	 	 140 
  19 	 	 24 	 	 766 	 	 6 	 	 557 	 	 704 	 	 111 
  20 	 	 202 	 	 532 	 	 95 	 	 567 	 	 736 	 	 180 
  21 	 	 498 	 	 590 	 	 2 	 	 1018 	 	 1073 	 	 174 
  22 	 	 666 	 	 203 	 	 9 	 	 336 	 	 468 	 	 108 
  23 	 	 56 	 	 985 	 	 5 	 	 802 	 	 897 	 	 179 
  24 	 	 288 	 	 30 	 	 3 	 	 1434 	 	 1548 	 	 185 
  25 	 	 54 	 	 253 	 	 5 	 	 285 	 	 352 	 	 177 
  26 	 	 938 	 	 976 	 	 4 	 	 941 	 	 1025 	 	 194 
  27 	 	 449 	 	 747 	 	 2 	 	 514 	 	 570 	 	 102 
  28 	 	 539 	 	 307 	 	 10 	 	 901 	 	 979 	 	 143 
  29 	 	 587 	 	 820 	 	 9 	 	 1348 	 	 1479 	 	 115 
  30 	 	 560 	 	 72 	 	 8 	 	 920 	 	 1024 	 	 149 
  31 	 	 585 	 	 482 	 	 9 	 	 700 	 	 814 	 	 168 
  32 	 	 786 	 	 958 	 	 5 	 	 1166 	 	 1262 	 	 179 
  33 	 	 549 	 	 738 	 	 5 	 	 1249 	 	 1301 	 	 193 
  34 	 	 287 	 	 238 	 	 2 	 	 693 	 	 853 	 	 119 
  35 	 	 245 	 	 371 	 	 5 	 	 1116 	 	 1203 	 	 176 
  36 	 	 572 	 	 671 	 	 10 	 	 833 	 	 983 	 	 159 
  37 	 	 626 	 	 662 	 	 2 	 	 1000 	 	 1073 	 	 155 
  38 	 	 355 	 	 750 	 	 1 	 	 713 	 	 912 	 	 185 
  39 	 	 535 	 	 134 	 	 9 	 	 81 	 	 208 	 	 168 
  40 	 	 684 	 	 90 	 	 88 	 	 178 	 	 375 	 	 198 
  41 	 	 394 	 	 621 	 	 9 	 	 638 	 	 784 	 	 182 
  42 	 	 805 	 	 864 	 	 9 	 	 966 	 	 1039 	 	 117 
  43 	 	 772 	 	 693 	 	 54 	 	 1310 	 	 1446 	 	 167 
  44 	 	 136 	 	 287 	 	 9 	 	 1494 	 	 1590 	 	 185 
  45 	 	 525 	 	 595 	 	 93 	 	 1264 	 	 1373 	 	 180 
  46 	 	 2 	 	 756 	 	 10 	 	 545 	 	 705 	 	 131 
  47 	 	 649 	 	 5 	 	 9 	 	 698 	 	 782 	 	 141 
  48 	 	 233 	 	 90 	 	 78 	 	 686 	 	 857 	 	 127 
  49 	 	 435 	 	 427 	 	 7 	 	 165 	 	 308 	 	 131 
  50 	 	 566 	 	 123 	 	 80 	 	 470 	 	 642 	 	 198 
  51 	 	 929 	 	 602 	 	 95 	 	 626 	 	 732 	 	 122 
  52 	 	 218 	 	 644 	 	 9 	 	 932 	 	 1025 	 	 109 
  53 	 	 712 	 	 404 	 	 9 	 	 258 	 	 416 	 	 186 
  54 	 	 465 	 	 24 	 	 10 	 	 687 	 	 795 	 	 151 
  55 	 	 13 	 	 135 	 	 8 	 	 1236 	 	 1301 	 	 198 
  56 	 	 337 	 	 831 	 	 7 	 	 639 	 	 779 	 	 123 
  57 	 	 811 	 	 78 	 	 2 	 	 451 	 	 510 	 	 116 
  58 	 	 297 	 	 648 	 	 95 	 	 379 	 	 480 	 	 116 
  59 	 	 926 	 	 770 	 	 98 	 	 721 	 	 872 	 	 142 
  60 	 	 687 	 	 542 	 	 10 	 	 1268 	 	 1418 	 	 145 
  61 	 	 149 	 	 150 	 	 2 	 	 410 	 	 540 	 	 181 
  62 	 	 466 	 	 991 	 	 6 	 	 1484 	 	 1590 	 	 165 
  63 	 	 134 	 	 182 	 	 5 	 	 428 	 	 536 	 	 191 
  64 	 	 487 	 	 159 	 	 60 	 	 672 	 	 759 	 	 180 
  65 	 	 606 	 	 731 	 	 8 	 	 542 	 	 631 	 	 106 
  66 	 	 277 	 	 300 	 	 4 	 	 95 	 	 290 	 	 142 
  67 	 	 684 	 	 764 	 	 5 	 	 1203 	 	 1325 	 	 135 
  68 	 	 759 	 	 934 	 	 6 	 	 777 	 	 941 	 	 100 
  69 	 	 37 	 	 708 	 	 1 	 	 708 	 	 866 	 	 117 
  70 	 	 540 	 	 300 	 	 7 	 	 913 	 	 1066 	 	 115 
  71 	 	 501 	 	 106 	 	 2 	 	 1095 	 	 1251 	 	 157 
  72 	 	 313 	 	 970 	 	 91 	 	 621 	 	 812 	 	 178 
  73 	 	 995 	 	 841 	 	 1 	 	 871 	 	 955 	 	 137 
  74 	 	 846 	 	 896 	 	 8 	 	 771 	 	 894 	 	 188 
  75 	 	 643 	 	 454 	 	 5 	 	 1408 	 	 1526 	 	 126 
  76 	 	 908 	 	 169 	 	 2 	 	 779 	 	 833 	 	 162 
  77 	 	 591 	 	 154 	 	 5 	 	 431 	 	 575 	 	 118 
  78 	 	 926 	 	 164 	 	 8 	 	 722 	 	 804 	 	 169 
  79 	 	 491 	 	 301 	 	 76 	 	 1136 	 	 1328 	 	 157 
  80 	 	 977 	 	 439 	 	 59 	 	 1168 	 	 1312 	 	 200 
  81 	 	 26 	 	 514 	 	 2 	 	 607 	 	 717 	 	 148 
  82 	 	 908 	 	 740 	 	 64 	 	 727 	 	 809 	 	 143 
  83 	 	 191 	 	 394 	 	 8 	 	 320 	 	 400 	 	 189 
  84 	 	 459 	 	 863 	 	 98 	 	 1232 	 	 1403 	 	 115 
  85 	 	 70 	 	 89 	 	 8 	 	 1103 	 	 1233 	 	 170 
  86 	 	 463 	 	 864 	 	 3 	 	 553 	 	 699 	 	 163 
  87 	 	 72 	 	 837 	 	 6 	 	 1083 	 	 1135 	 	 141 
  88 	 	 703 	 	 424 	 	 95 	 	 648 	 	 793 	 	 188 
  89 	 	 128 	 	 946 	 	 9 	 	 675 	 	 828 	 	 117 
  90 	 	 564 	 	 767 	 	 9 	 	 1113 	 	 1198 	 	 175 
  91 	 	 69 	 	 214 	 	 8 	 	 1443 	 	 1517 	 	 189 
  92 	 	 48 	 	 985 	 	 7 	 	 786 	 	 900 	 	 164 
  93 	 	 782 	 	 510 	 	 10 	 	 395 	 	 541 	 	 183 
  94 	 	 856 	 	 855 	 	 3 	 	 702 	 	 864 	 	 116 
  95 	 	 969 	 	 902 	 	 8 	 	 879 	 	 984 	 	 169 
  96 	 	 174 	 	 92 	 	 5 	 	 1338 	 	 1500 	 	 159 
  97 	 	 604 	 	 964 	 	 1 	 	 1165 	 	 1342 	 	 137 
  98 	 	 332 	 	 159 	 	 5 	 	 393 	 	 557 	 	 192 
  99 	 	 354 	 	 43 	 	 5 	 	 490 	 	 672 	 	 150 
  100 	 	 587 	 	 925 	 	 4 	 	 865 	 	 969 	 	 133 
 